language ESSENCE' 1.0
$ loaded file: carseqdata/csplib-instance-78
letting numcars=200
letting numclasses=28
letting numoptions=5
letting optMax=[1, 2, 1, 2, 1]
letting windowSize=[2, 3, 3, 5, 5]
letting numberPerClass=[6, 1, 9, 1, 2, 1, 10, 2, 18, 6, 4, 1, 7, 3, 4, 15, 2, 13, 8, 6, 36, 2, 21, 5, 2, 1, 8, 6]
letting optionsRequired=[[1, 0, 1, 1, 0], [1, 0, 1, 1, 1], [0, 1, 1, 0, 0], [0, 0, 1, 1, 1], [1, 1, 1, 1, 0], [1, 1, 1, 1, 1], [0, 0, 1, 0, 0], [1, 0, 0, 1, 1], [0, 1, 0, 1, 0], [0, 1, 0, 0, 1], [0, 0, 0, 1, 1], [0, 1, 1, 1, 1], [1, 1, 1, 0, 0], [0, 1, 1, 1, 0], [1, 0, 0, 0, 1], [1, 0, 0, 0, 0], [1, 1, 0, 1, 1], [1, 1, 0, 0, 0], [1, 0, 1, 0, 0], [1, 0, 0, 0, 0], [0, 1, 0, 0, 0], [1, 0, 1, 0, 1], [1, 1, 0, 0, 0], [0, 0, 1, 0, 0], [0, 1, 0, 0, 1], [0, 0, 0, 0, 0], [0, 0, 0, 0, 0], [0, 0, 0, 0, 0]]
